 num_bands = 54
 num_wann =  6

exclude_bands 1-18


!!! Disentanglement parameters !!!
! Fermi level 2.731682
dis_froz_min     = 2.53
dis_froz_max     = 4.33
dis_mix_ratio    = 0.5

!!! Iterations &c. !!!
 iprint                = 1
 num_iter              = 10000
 num_print_cycles      =   100
 conv_window           = 3
!conv_tol              = 1e-10
 dis_num_iter          = 10000
!dis_conv_window       = 3
!dis_conv_tol          = 1e-10
!restart               = default ! wannierise ! plot ! transport

!!! Post-processing options !!!
 write_proj             = .true.
 write_xyz              = .true.
 translate_home_cell    = .true.
 write_hr               = .true.
!fermi_surface_plot     = .true.
!dos                    = .false.
!dos_project            =
!dos_kmesh              = 50 50 1
!dos_energy_min         = -1.8
!dos_energy_max         = +1.5

!!! Band structure !!!
!!! needs `kpoint_path' block
 bands_plot             = .true.
 bands_num_points       = 501
!bands_plot_format      = gnuplot xmgrace
!bands_plot_project     = 1-3
!bands_plot_mode        = s-k | cut [Slater-Koster | truncate Hamiltonian]

Begin Projections
  c=2.5144501, 0.0000000, 0.0000000:s
  c=2.5144501, 2.5144501, 2.5144501:s
  c=0.0000000, 0.0000000, 2.5144501:s
  c=0.0000000, 2.5144501, 0.0000000:px
  c=0.0000000, 2.5144501, 0.0000000:py
  c=0.0000000, 2.5144501, 0.0000000:pz
End Projections

!!! BZ-Path for band structure !!!
begin kpoint_path
  G   0.00000   0.00000   0.00000    X   0.00000   0.50000   0.00000
  X   0.00000   0.50000   0.00000    M   0.50000   0.50000   0.00000
  M   0.50000   0.50000   0.00000    G   0.00000   0.00000   0.00000
  G   0.00000   0.00000   0.00000    R   0.50000   0.50000   0.50000
  R   0.50000   0.50000   0.50000    X   0.00000   0.50000   0.00000
  R   0.50000   0.50000   0.50000    M   0.50000   0.50000   0.00000
end kpoint_path

begin unit_cell_cart
     5.0289001     0.0000000     0.0000000
     0.0000000     5.0289001     0.0000000
     0.0000000     0.0000000     5.0289001
end unit_cell_cart

begin atoms_cart
Lu       0.0000000     0.0000000     0.0000000
Lu       0.0000000     2.5144501     2.5144501
Lu       2.5144501     0.0000000     2.5144501
Lu       2.5144501     2.5144501     0.0000000
H        1.3173448     1.1971052     1.3173448
H        1.3173448     3.8317949     3.7115553
H        3.7115553     1.1971052     3.7115553
H        3.7115553     3.8317949     1.3173448
H        3.7115553     3.8317949     3.7115553
H        3.7115553     1.1971052     1.3173448
H        1.3173448     3.8317949     1.3173448
H        1.3173448     1.1971052     3.7115553
H        2.5144501     0.0000000     0.0000000
H        2.5144501     2.5144501     2.5144501
H        0.0000000     0.0000000     2.5144501
N        0.0000000     2.5144501     0.0000000
end atoms_cart

mp_grid =    16    16    16

begin kpoints
      0.000000000000      0.000000000000      0.000000000000
      0.062500000000      0.000000000000      0.000000000000
      0.125000000000      0.000000000000      0.000000000000
      0.187500000000      0.000000000000      0.000000000000
      0.250000000000      0.000000000000      0.000000000000
      0.312500000000      0.000000000000      0.000000000000
      0.375000000000      0.000000000000      0.000000000000
      0.437500000000      0.000000000000      0.000000000000
      0.500000000000      0.000000000000      0.000000000000
      0.062500000000      0.062500000000      0.000000000000
      0.125000000000      0.062500000000      0.000000000000
      0.187500000000      0.062500000000      0.000000000000
      0.250000000000      0.062500000000      0.000000000000
      0.312500000000      0.062500000000      0.000000000000
      0.375000000000      0.062500000000      0.000000000000
      0.437500000000      0.062500000000      0.000000000000
      0.500000000000      0.062500000000      0.000000000000
      0.125000000000      0.125000000000      0.000000000000
      0.187500000000      0.125000000000      0.000000000000
      0.250000000000      0.125000000000      0.000000000000
      0.312500000000      0.125000000000      0.000000000000
      0.375000000000      0.125000000000      0.000000000000
      0.437500000000      0.125000000000      0.000000000000
      0.500000000000      0.125000000000      0.000000000000
      0.187500000000      0.187500000000      0.000000000000
      0.250000000000      0.187500000000      0.000000000000
      0.312500000000      0.187500000000      0.000000000000
      0.375000000000      0.187500000000      0.000000000000
      0.437500000000      0.187500000000      0.000000000000
      0.500000000000      0.187500000000      0.000000000000
      0.250000000000      0.250000000000      0.000000000000
      0.312500000000      0.250000000000      0.000000000000
      0.375000000000      0.250000000000      0.000000000000
      0.437500000000      0.250000000000      0.000000000000
      0.500000000000      0.250000000000      0.000000000000
      0.312500000000      0.312500000000      0.000000000000
      0.375000000000      0.312500000000      0.000000000000
      0.437500000000      0.312500000000      0.000000000000
      0.500000000000      0.312500000000      0.000000000000
      0.375000000000      0.375000000000      0.000000000000
      0.437500000000      0.375000000000      0.000000000000
      0.500000000000      0.375000000000      0.000000000000
      0.437500000000      0.437500000000      0.000000000000
      0.500000000000      0.437500000000      0.000000000000
      0.500000000000      0.500000000000      0.000000000000
      0.062500000000      0.062500000000      0.062500000000
      0.125000000000      0.062500000000      0.062500000000
      0.187500000000      0.062500000000      0.062500000000
      0.250000000000      0.062500000000      0.062500000000
      0.312500000000      0.062500000000      0.062500000000
      0.375000000000      0.062500000000      0.062500000000
      0.437500000000      0.062500000000      0.062500000000
      0.500000000000      0.062500000000      0.062500000000
      0.125000000000      0.125000000000      0.062500000000
      0.187500000000      0.125000000000      0.062500000000
      0.250000000000      0.125000000000      0.062500000000
      0.312500000000      0.125000000000      0.062500000000
      0.375000000000      0.125000000000      0.062500000000
      0.437500000000      0.125000000000      0.062500000000
      0.500000000000      0.125000000000      0.062500000000
      0.187500000000      0.187500000000      0.062500000000
      0.250000000000      0.187500000000      0.062500000000
      0.312500000000      0.187500000000      0.062500000000
      0.375000000000      0.187500000000      0.062500000000
      0.437500000000      0.187500000000      0.062500000000
      0.500000000000      0.187500000000      0.062500000000
      0.250000000000      0.250000000000      0.062500000000
      0.312500000000      0.250000000000      0.062500000000
      0.375000000000      0.250000000000      0.062500000000
      0.437500000000      0.250000000000      0.062500000000
      0.500000000000      0.250000000000      0.062500000000
      0.312500000000      0.312500000000      0.062500000000
      0.375000000000      0.312500000000      0.062500000000
      0.437500000000      0.312500000000      0.062500000000
      0.500000000000      0.312500000000      0.062500000000
      0.375000000000      0.375000000000      0.062500000000
      0.437500000000      0.375000000000      0.062500000000
      0.500000000000      0.375000000000      0.062500000000
      0.437500000000      0.437500000000      0.062500000000
      0.500000000000      0.437500000000      0.062500000000
      0.500000000000      0.500000000000      0.062500000000
      0.125000000000      0.125000000000      0.125000000000
      0.187500000000      0.125000000000      0.125000000000
      0.250000000000      0.125000000000      0.125000000000
      0.312500000000      0.125000000000      0.125000000000
      0.375000000000      0.125000000000      0.125000000000
      0.437500000000      0.125000000000      0.125000000000
      0.500000000000      0.125000000000      0.125000000000
      0.187500000000      0.187500000000      0.125000000000
      0.250000000000      0.187500000000      0.125000000000
      0.312500000000      0.187500000000      0.125000000000
      0.375000000000      0.187500000000      0.125000000000
      0.437500000000      0.187500000000      0.125000000000
      0.500000000000      0.187500000000      0.125000000000
      0.250000000000      0.250000000000      0.125000000000
      0.312500000000      0.250000000000      0.125000000000
      0.375000000000      0.250000000000      0.125000000000
      0.437500000000      0.250000000000      0.125000000000
      0.500000000000      0.250000000000      0.125000000000
      0.312500000000      0.312500000000      0.125000000000
      0.375000000000      0.312500000000      0.125000000000
      0.437500000000      0.312500000000      0.125000000000
      0.500000000000      0.312500000000      0.125000000000
      0.375000000000      0.375000000000      0.125000000000
      0.437500000000      0.375000000000      0.125000000000
      0.500000000000      0.375000000000      0.125000000000
      0.437500000000      0.437500000000      0.125000000000
      0.500000000000      0.437500000000      0.125000000000
      0.500000000000      0.500000000000      0.125000000000
      0.187500000000      0.187500000000      0.187500000000
      0.250000000000      0.187500000000      0.187500000000
      0.312500000000      0.187500000000      0.187500000000
      0.375000000000      0.187500000000      0.187500000000
      0.437500000000      0.187500000000      0.187500000000
      0.500000000000      0.187500000000      0.187500000000
      0.250000000000      0.250000000000      0.187500000000
      0.312500000000      0.250000000000      0.187500000000
      0.375000000000      0.250000000000      0.187500000000
      0.437500000000      0.250000000000      0.187500000000
      0.500000000000      0.250000000000      0.187500000000
      0.312500000000      0.312500000000      0.187500000000
      0.375000000000      0.312500000000      0.187500000000
      0.437500000000      0.312500000000      0.187500000000
      0.500000000000      0.312500000000      0.187500000000
      0.375000000000      0.375000000000      0.187500000000
      0.437500000000      0.375000000000      0.187500000000
      0.500000000000      0.375000000000      0.187500000000
      0.437500000000      0.437500000000      0.187500000000
      0.500000000000      0.437500000000      0.187500000000
      0.500000000000      0.500000000000      0.187500000000
      0.250000000000      0.250000000000      0.250000000000
      0.312500000000      0.250000000000      0.250000000000
      0.375000000000      0.250000000000      0.250000000000
      0.437500000000      0.250000000000      0.250000000000
      0.500000000000      0.250000000000      0.250000000000
      0.312500000000      0.312500000000      0.250000000000
      0.375000000000      0.312500000000      0.250000000000
      0.437500000000      0.312500000000      0.250000000000
      0.500000000000      0.312500000000      0.250000000000
      0.375000000000      0.375000000000      0.250000000000
      0.437500000000      0.375000000000      0.250000000000
      0.500000000000      0.375000000000      0.250000000000
      0.437500000000      0.437500000000      0.250000000000
      0.500000000000      0.437500000000      0.250000000000
      0.500000000000      0.500000000000      0.250000000000
      0.312500000000      0.312500000000      0.312500000000
      0.375000000000      0.312500000000      0.312500000000
      0.437500000000      0.312500000000      0.312500000000
      0.500000000000      0.312500000000      0.312500000000
      0.375000000000      0.375000000000      0.312500000000
      0.437500000000      0.375000000000      0.312500000000
      0.500000000000      0.375000000000      0.312500000000
      0.437500000000      0.437500000000      0.312500000000
      0.500000000000      0.437500000000      0.312500000000
      0.500000000000      0.500000000000      0.312500000000
      0.375000000000      0.375000000000      0.375000000000
      0.437500000000      0.375000000000      0.375000000000
      0.500000000000      0.375000000000      0.375000000000
      0.437500000000      0.437500000000      0.375000000000
      0.500000000000      0.437500000000      0.375000000000
      0.500000000000      0.500000000000      0.375000000000
      0.437500000000      0.437500000000      0.437500000000
      0.500000000000      0.437500000000      0.437500000000
      0.500000000000      0.500000000000      0.437500000000
      0.500000000000      0.500000000000      0.500000000000
     -0.062500000000      0.000000000000      0.000000000000
      0.000000000000      0.000000000000      0.062500000000
      0.000000000000      0.000000000000     -0.062500000000
      0.000000000000      0.062500000000      0.000000000000
      0.000000000000     -0.062500000000      0.000000000000
     -0.125000000000      0.000000000000      0.000000000000
      0.000000000000      0.000000000000      0.125000000000
      0.000000000000      0.000000000000     -0.125000000000
      0.000000000000      0.125000000000      0.000000000000
      0.000000000000     -0.125000000000      0.000000000000
     -0.187500000000      0.000000000000      0.000000000000
      0.000000000000      0.000000000000      0.187500000000
      0.000000000000      0.000000000000     -0.187500000000
      0.000000000000      0.187500000000      0.000000000000
      0.000000000000     -0.187500000000      0.000000000000
     -0.250000000000      0.000000000000      0.000000000000
      0.000000000000      0.000000000000      0.250000000000
      0.000000000000      0.000000000000     -0.250000000000
      0.000000000000      0.250000000000      0.000000000000
      0.000000000000     -0.250000000000      0.000000000000
     -0.312500000000      0.000000000000      0.000000000000
      0.000000000000      0.000000000000      0.312500000000
      0.000000000000      0.000000000000     -0.312500000000
      0.000000000000      0.312500000000      0.000000000000
      0.000000000000     -0.312500000000      0.000000000000
     -0.375000000000      0.000000000000      0.000000000000
      0.000000000000      0.000000000000      0.375000000000
      0.000000000000      0.000000000000     -0.375000000000
      0.000000000000      0.375000000000      0.000000000000
      0.000000000000     -0.375000000000      0.000000000000
     -0.437500000000      0.000000000000      0.000000000000
      0.000000000000      0.000000000000      0.437500000000
      0.000000000000      0.000000000000     -0.437500000000
      0.000000000000      0.437500000000      0.000000000000
      0.000000000000     -0.437500000000      0.000000000000
      0.000000000000      0.000000000000      0.500000000000
      0.000000000000      0.500000000000      0.000000000000
     -0.062500000000     -0.062500000000      0.000000000000
      0.000000000000      0.062500000000      0.062500000000
      0.000000000000     -0.062500000000     -0.062500000000
      0.000000000000     -0.062500000000      0.062500000000
      0.000000000000      0.062500000000     -0.062500000000
      0.062500000000     -0.062500000000      0.000000000000
     -0.062500000000      0.062500000000      0.000000000000
      0.062500000000      0.000000000000      0.062500000000
     -0.062500000000      0.000000000000     -0.062500000000
     -0.062500000000      0.000000000000      0.062500000000
      0.062500000000      0.000000000000     -0.062500000000
     -0.125000000000     -0.062500000000      0.000000000000
      0.000000000000      0.062500000000      0.125000000000
      0.000000000000     -0.062500000000     -0.125000000000
      0.000000000000     -0.062500000000      0.125000000000
      0.000000000000      0.062500000000     -0.125000000000
      0.125000000000     -0.062500000000      0.000000000000
     -0.125000000000      0.062500000000      0.000000000000
      0.000000000000      0.125000000000      0.062500000000
      0.000000000000     -0.125000000000     -0.062500000000
      0.062500000000      0.000000000000      0.125000000000
     -0.062500000000      0.000000000000     -0.125000000000
     -0.062500000000      0.125000000000      0.000000000000
      0.062500000000     -0.125000000000      0.000000000000
     -0.125000000000      0.000000000000      0.062500000000
      0.125000000000      0.000000000000     -0.062500000000
      0.000000000000     -0.125000000000      0.062500000000
      0.000000000000      0.125000000000     -0.062500000000
     -0.062500000000      0.000000000000      0.125000000000
      0.062500000000      0.000000000000     -0.125000000000
      0.125000000000      0.000000000000      0.062500000000
     -0.125000000000      0.000000000000     -0.062500000000
      0.062500000000      0.125000000000      0.000000000000
     -0.062500000000     -0.125000000000      0.000000000000
     -0.187500000000     -0.062500000000      0.000000000000
      0.000000000000      0.062500000000      0.187500000000
      0.000000000000     -0.062500000000     -0.187500000000
      0.000000000000     -0.062500000000      0.187500000000
      0.000000000000      0.062500000000     -0.187500000000
      0.187500000000     -0.062500000000      0.000000000000
     -0.187500000000      0.062500000000      0.000000000000
      0.000000000000      0.187500000000      0.062500000000
      0.000000000000     -0.187500000000     -0.062500000000
      0.062500000000      0.000000000000      0.187500000000
     -0.062500000000      0.000000000000     -0.187500000000
     -0.062500000000      0.187500000000      0.000000000000
      0.062500000000     -0.187500000000      0.000000000000
     -0.187500000000      0.000000000000      0.062500000000
      0.187500000000      0.000000000000     -0.062500000000
      0.000000000000     -0.187500000000      0.062500000000
      0.000000000000      0.187500000000     -0.062500000000
     -0.062500000000      0.000000000000      0.187500000000
      0.062500000000      0.000000000000     -0.187500000000
      0.187500000000      0.000000000000      0.062500000000
     -0.187500000000      0.000000000000     -0.062500000000
      0.062500000000      0.187500000000      0.000000000000
     -0.062500000000     -0.187500000000      0.000000000000
     -0.250000000000     -0.062500000000      0.000000000000
      0.000000000000      0.062500000000      0.250000000000
      0.000000000000     -0.062500000000     -0.250000000000
      0.000000000000     -0.062500000000      0.250000000000
      0.000000000000      0.062500000000     -0.250000000000
      0.250000000000     -0.062500000000      0.000000000000
     -0.250000000000      0.062500000000      0.000000000000
      0.000000000000      0.250000000000      0.062500000000
      0.000000000000     -0.250000000000     -0.062500000000
      0.062500000000      0.000000000000      0.250000000000
     -0.062500000000      0.000000000000     -0.250000000000
     -0.062500000000      0.250000000000      0.000000000000
      0.062500000000     -0.250000000000      0.000000000000
     -0.250000000000      0.000000000000      0.062500000000
      0.250000000000      0.000000000000     -0.062500000000
      0.000000000000     -0.250000000000      0.062500000000
      0.000000000000      0.250000000000     -0.062500000000
     -0.062500000000      0.000000000000      0.250000000000
      0.062500000000      0.000000000000     -0.250000000000
      0.250000000000      0.000000000000      0.062500000000
     -0.250000000000      0.000000000000     -0.062500000000
      0.062500000000      0.250000000000      0.000000000000
     -0.062500000000     -0.250000000000      0.000000000000
     -0.312500000000     -0.062500000000      0.000000000000
      0.000000000000      0.062500000000      0.312500000000
      0.000000000000     -0.062500000000     -0.312500000000
      0.000000000000     -0.062500000000      0.312500000000
      0.000000000000      0.062500000000     -0.312500000000
      0.312500000000     -0.062500000000      0.000000000000
     -0.312500000000      0.062500000000      0.000000000000
      0.000000000000      0.312500000000      0.062500000000
      0.000000000000     -0.312500000000     -0.062500000000
      0.062500000000      0.000000000000      0.312500000000
     -0.062500000000      0.000000000000     -0.312500000000
     -0.062500000000      0.312500000000      0.000000000000
      0.062500000000     -0.312500000000      0.000000000000
     -0.312500000000      0.000000000000      0.062500000000
      0.312500000000      0.000000000000     -0.062500000000
      0.000000000000     -0.312500000000      0.062500000000
      0.000000000000      0.312500000000     -0.062500000000
     -0.062500000000      0.000000000000      0.312500000000
      0.062500000000      0.000000000000     -0.312500000000
      0.312500000000      0.000000000000      0.062500000000
     -0.312500000000      0.000000000000     -0.062500000000
      0.062500000000      0.312500000000      0.000000000000
     -0.062500000000     -0.312500000000      0.000000000000
     -0.375000000000     -0.062500000000      0.000000000000
      0.000000000000      0.062500000000      0.375000000000
      0.000000000000     -0.062500000000     -0.375000000000
      0.000000000000     -0.062500000000      0.375000000000
      0.000000000000      0.062500000000     -0.375000000000
      0.375000000000     -0.062500000000      0.000000000000
     -0.375000000000      0.062500000000      0.000000000000
      0.000000000000      0.375000000000      0.062500000000
      0.000000000000     -0.375000000000     -0.062500000000
      0.062500000000      0.000000000000      0.375000000000
     -0.062500000000      0.000000000000     -0.375000000000
     -0.062500000000      0.375000000000      0.000000000000
      0.062500000000     -0.375000000000      0.000000000000
     -0.375000000000      0.000000000000      0.062500000000
      0.375000000000      0.000000000000     -0.062500000000
      0.000000000000     -0.375000000000      0.062500000000
      0.000000000000      0.375000000000     -0.062500000000
     -0.062500000000      0.000000000000      0.375000000000
      0.062500000000      0.000000000000     -0.375000000000
      0.375000000000      0.000000000000      0.062500000000
     -0.375000000000      0.000000000000     -0.062500000000
      0.062500000000      0.375000000000      0.000000000000
     -0.062500000000     -0.375000000000      0.000000000000
     -0.437500000000     -0.062500000000      0.000000000000
      0.000000000000      0.062500000000      0.437500000000
      0.000000000000     -0.062500000000     -0.437500000000
      0.000000000000     -0.062500000000      0.437500000000
      0.000000000000      0.062500000000     -0.437500000000
      0.437500000000     -0.062500000000      0.000000000000
     -0.437500000000      0.062500000000      0.000000000000
      0.000000000000      0.437500000000      0.062500000000
      0.000000000000     -0.437500000000     -0.062500000000
      0.062500000000      0.000000000000      0.437500000000
     -0.062500000000      0.000000000000     -0.437500000000
     -0.062500000000      0.437500000000      0.000000000000
      0.062500000000     -0.437500000000      0.000000000000
     -0.437500000000      0.000000000000      0.062500000000
      0.437500000000      0.000000000000     -0.062500000000
      0.000000000000     -0.437500000000      0.062500000000
      0.000000000000      0.437500000000     -0.062500000000
     -0.062500000000      0.000000000000      0.437500000000
      0.062500000000      0.000000000000     -0.437500000000
      0.437500000000      0.000000000000      0.062500000000
     -0.437500000000      0.000000000000     -0.062500000000
      0.062500000000      0.437500000000      0.000000000000
     -0.062500000000     -0.437500000000      0.000000000000
     -0.500000000000     -0.062500000000      0.000000000000
      0.000000000000      0.062500000000      0.500000000000
      0.000000000000     -0.062500000000     -0.500000000000
      0.000000000000      0.500000000000      0.062500000000
      0.000000000000     -0.500000000000     -0.062500000000
      0.062500000000      0.000000000000      0.500000000000
     -0.062500000000      0.000000000000     -0.500000000000
     -0.062500000000      0.500000000000      0.000000000000
      0.062500000000     -0.500000000000      0.000000000000
     -0.500000000000      0.000000000000      0.062500000000
      0.500000000000      0.000000000000     -0.062500000000
     -0.125000000000     -0.125000000000      0.000000000000
      0.000000000000      0.125000000000      0.125000000000
      0.000000000000     -0.125000000000     -0.125000000000
      0.000000000000     -0.125000000000      0.125000000000
      0.000000000000      0.125000000000     -0.125000000000
      0.125000000000     -0.125000000000      0.000000000000
     -0.125000000000      0.125000000000      0.000000000000
      0.125000000000      0.000000000000      0.125000000000
     -0.125000000000      0.000000000000     -0.125000000000
     -0.125000000000      0.000000000000      0.125000000000
      0.125000000000      0.000000000000     -0.125000000000
     -0.187500000000     -0.125000000000      0.000000000000
      0.000000000000      0.125000000000      0.187500000000
      0.000000000000     -0.125000000000     -0.187500000000
      0.000000000000     -0.125000000000      0.187500000000
      0.000000000000      0.125000000000     -0.187500000000
      0.187500000000     -0.125000000000      0.000000000000
     -0.187500000000      0.125000000000      0.000000000000
      0.000000000000      0.187500000000      0.125000000000
      0.000000000000     -0.187500000000     -0.125000000000
      0.125000000000      0.000000000000      0.187500000000
     -0.125000000000      0.000000000000     -0.187500000000
     -0.125000000000      0.187500000000      0.000000000000
      0.125000000000     -0.187500000000      0.000000000000
     -0.187500000000      0.000000000000      0.125000000000
      0.187500000000      0.000000000000     -0.125000000000
      0.000000000000     -0.187500000000      0.125000000000
      0.000000000000      0.187500000000     -0.125000000000
     -0.125000000000      0.000000000000      0.187500000000
      0.125000000000      0.000000000000     -0.187500000000
      0.187500000000      0.000000000000      0.125000000000
     -0.187500000000      0.000000000000     -0.125000000000
      0.125000000000      0.187500000000      0.000000000000
     -0.125000000000     -0.187500000000      0.000000000000
     -0.250000000000     -0.125000000000      0.000000000000
      0.000000000000      0.125000000000      0.250000000000
      0.000000000000     -0.125000000000     -0.250000000000
      0.000000000000     -0.125000000000      0.250000000000
      0.000000000000      0.125000000000     -0.250000000000
      0.250000000000     -0.125000000000      0.000000000000
     -0.250000000000      0.125000000000      0.000000000000
      0.000000000000      0.250000000000      0.125000000000
      0.000000000000     -0.250000000000     -0.125000000000
      0.125000000000      0.000000000000      0.250000000000
     -0.125000000000      0.000000000000     -0.250000000000
     -0.125000000000      0.250000000000      0.000000000000
      0.125000000000     -0.250000000000      0.000000000000
     -0.250000000000      0.000000000000      0.125000000000
      0.250000000000      0.000000000000     -0.125000000000
      0.000000000000     -0.250000000000      0.125000000000
      0.000000000000      0.250000000000     -0.125000000000
     -0.125000000000      0.000000000000      0.250000000000
      0.125000000000      0.000000000000     -0.250000000000
      0.250000000000      0.000000000000      0.125000000000
     -0.250000000000      0.000000000000     -0.125000000000
      0.125000000000      0.250000000000      0.000000000000
     -0.125000000000     -0.250000000000      0.000000000000
     -0.312500000000     -0.125000000000      0.000000000000
      0.000000000000      0.125000000000      0.312500000000
      0.000000000000     -0.125000000000     -0.312500000000
      0.000000000000     -0.125000000000      0.312500000000
      0.000000000000      0.125000000000     -0.312500000000
      0.312500000000     -0.125000000000      0.000000000000
     -0.312500000000      0.125000000000      0.000000000000
      0.000000000000      0.312500000000      0.125000000000
      0.000000000000     -0.312500000000     -0.125000000000
      0.125000000000      0.000000000000      0.312500000000
     -0.125000000000      0.000000000000     -0.312500000000
     -0.125000000000      0.312500000000      0.000000000000
      0.125000000000     -0.312500000000      0.000000000000
     -0.312500000000      0.000000000000      0.125000000000
      0.312500000000      0.000000000000     -0.125000000000
      0.000000000000     -0.312500000000      0.125000000000
      0.000000000000      0.312500000000     -0.125000000000
     -0.125000000000      0.000000000000      0.312500000000
      0.125000000000      0.000000000000     -0.312500000000
      0.312500000000      0.000000000000      0.125000000000
     -0.312500000000      0.000000000000     -0.125000000000
      0.125000000000      0.312500000000      0.000000000000
     -0.125000000000     -0.312500000000      0.000000000000
     -0.375000000000     -0.125000000000      0.000000000000
      0.000000000000      0.125000000000      0.375000000000